SECTION Graph
Nodes 233
Edges 386
E 1 2 5
E 3 4 5
E 4 5 5
E 5 6 5
E 6 7 5
E 7 8 5
E 8 9 5
E 9 10 5
E 10 11 5
E 11 12 5
E 12 13 5
E 1 14 13
E 2 15 13
E 3 16 13
E 4 17 13
E 5 18 13
E 6 19 13
E 7 20 13
E 8 21 13
E 10 22 13
E 11 23 13
E 12 24 13
E 13 25 13
E 14 15 5
E 16 17 5
E 17 18 5
E 18 19 5
E 19 20 5
E 20 21 5
E 22 23 5
E 23 24 5
E 24 25 5
E 15 27 13
E 16 29 13
E 17 30 13
E 18 31 13
E 19 32 13
E 21 34 13
E 22 35 13
E 23 36 13
E 24 37 13
E 25 38 13
E 26 27 5
E 27 28 5
E 28 29 5
E 29 30 5
E 30 31 5
E 31 32 5
E 32 33 5
E 33 34 5
E 35 36 5
E 36 37 5
E 37 38 5
E 27 40 13
E 28 41 13
E 29 42 13
E 30 43 13
E 31 44 13
E 33 46 13
E 34 47 13
E 35 49 13
E 36 50 13
E 37 51 13
E 38 52 13
E 39 40 5
E 40 41 5
E 41 42 5
E 42 43 5
E 43 44 5
E 44 45 5
E 45 46 5
E 46 47 5
E 47 48 5
E 48 49 5
E 49 50 5
E 50 51 5
E 51 52 5
E 39 53 13
E 40 54 13
E 43 57 13
E 44 58 13
E 45 59 13
E 47 60 13
E 48 61 13
E 49 62 13
E 50 63 13
E 51 64 13
E 52 65 13
E 53 54 5
E 54 55 5
E 55 56 5
E 56 57 5
E 57 58 5
E 58 59 5
E 60 61 5
E 61 62 5
E 62 63 5
E 63 64 5
E 64 65 5
E 53 66 13
E 54 67 13
E 55 68 13
E 56 69 13
E 57 70 13
E 58 71 13
E 59 72 13
E 60 73 13
E 62 74 13
E 64 76 13
E 65 77 13
E 66 67 5
E 67 68 5
E 68 69 5
E 69 70 5
E 70 71 5
E 71 72 5
E 74 75 5
E 75 76 5
E 76 77 5
E 66 78 13
E 67 79 13
E 70 82 13
E 71 83 13
E 72 84 13
E 73 86 13
E 74 87 13
E 75 88 13
E 76 89 13
E 77 90 13
E 78 79 5
E 79 80 5
E 80 81 5
E 81 82 5
E 82 83 5
E 83 84 5
E 84 85 5
E 85 86 5
E 87 88 5
E 88 89 5
E 89 90 5
E 78 91 13
E 79 92 13
E 80 93 13
E 83 96 13
E 84 97 13
E 85 98 13
E 86 99 13
E 87 101 13
E 88 102 13
E 89 103 13
E 90 104 13
E 91 92 5
E 92 93 5
E 93 94 5
E 94 95 5
E 95 96 5
E 96 97 5
E 97 98 5
E 98 99 5
E 99 100 5
E 100 101 5
E 101 102 5
E 102 103 5
E 103 104 5
E 91 105 13
E 92 106 13
E 93 107 13
E 94 108 13
E 95 109 13
E 96 110 13
E 99 113 13
E 100 114 13
E 101 115 13
E 102 116 13
E 103 117 13
E 104 118 13
E 105 106 5
E 106 107 5
E 107 108 5
E 108 109 5
E 109 110 5
E 110 111 5
E 111 112 5
E 112 113 5
E 113 114 5
E 114 115 5
E 115 116 5
E 116 117 5
E 117 118 5
E 107 121 13
E 108 122 13
E 109 123 13
E 110 124 13
E 111 125 13
E 113 126 13
E 115 127 13
E 118 130 13
E 119 120 5
E 120 121 5
E 121 122 5
E 122 123 5
E 123 124 5
E 124 125 5
E 127 128 5
E 128 129 5
E 129 130 5
E 122 131 13
E 123 132 13
E 125 134 13
E 126 135 13
E 127 136 13
E 130 139 13
E 131 132 5
E 132 133 5
E 133 134 5
E 136 137 5
E 137 138 5
E 138 139 5
E 131 143 13
E 132 144 13
E 133 145 13
E 134 146 13
E 135 148 13
E 136 150 13
E 138 152 13
E 139 153 13
E 140 141 5
E 141 142 5
E 142 143 5
E 143 144 5
E 144 145 5
E 145 146 5
E 146 147 5
E 147 148 5
E 148 149 5
E 149 150 5
E 150 151 5
E 151 152 5
E 152 153 5
E 140 154 13
E 141 155 13
E 142 156 13
E 143 157 13
E 146 160 13
E 147 161 13
E 148 162 13
E 149 163 13
E 150 164 13
E 151 165 13
E 152 166 13
E 153 167 13
E 154 155 5
E 155 156 5
E 156 157 5
E 157 158 5
E 158 159 5
E 159 160 5
E 160 161 5
E 161 162 5
E 162 163 5
E 163 164 5
E 164 165 5
E 165 166 5
E 166 167 5
E 154 168 13
E 155 169 13
E 156 170 13
E 157 171 13
E 158 172 13
E 159 173 13
E 160 174 13
E 161 175 13
E 162 176 13
E 163 177 13
E 164 178 13
E 165 179 13
E 166 180 13
E 167 181 13
E 168 169 5
E 169 170 5
E 170 171 5
E 171 172 5
E 172 173 5
E 173 174 5
E 174 175 5
E 175 176 5
E 176 177 5
E 177 178 5
E 178 179 5
E 179 180 5
E 180 181 5
E 168 182 13
E 169 183 13
E 170 184 13
E 171 185 13
E 172 186 13
E 173 187 13
E 174 188 13
E 175 189 13
E 176 190 13
E 177 191 13
E 178 192 13
E 179 193 13
E 181 194 13
E 182 183 5
E 183 184 5
E 184 185 5
E 185 186 5
E 186 187 5
E 187 188 5
E 188 189 5
E 189 190 5
E 190 191 5
E 191 192 5
E 192 193 5
E 182 195 13
E 183 196 13
E 184 197 13
E 185 198 13
E 186 199 13
E 187 200 13
E 188 201 13
E 189 202 13
E 190 203 13
E 191 204 13
E 192 205 13
E 193 206 13
E 194 207 13
E 195 196 5
E 196 197 5
E 197 198 5
E 198 199 5
E 199 200 5
E 200 201 5
E 201 202 5
E 202 203 5
E 203 204 5
E 204 205 5
E 205 206 5
E 195 208 13
E 196 209 13
E 197 210 13
E 199 211 13
E 200 212 13
E 201 213 13
E 202 214 13
E 203 215 13
E 204 216 13
E 205 217 13
E 206 218 13
E 207 220 13
E 208 209 5
E 209 210 5
E 211 212 5
E 212 213 5
E 213 214 5
E 214 215 5
E 215 216 5
E 216 217 5
E 217 218 5
E 218 219 5
E 219 220 5
E 208 221 13
E 209 222 13
E 210 223 13
E 211 224 13
E 212 225 13
E 213 226 13
E 214 227 13
E 215 228 13
E 216 229 13
E 217 230 13
E 218 231 13
E 219 232 13
E 220 233 13
E 221 222 5
E 222 223 5
E 224 225 5
E 225 226 5
E 226 227 5
E 227 228 5
E 228 229 5
E 229 230 5
E 230 231 5
E 231 232 5
E 232 233 5
END

SECTION Terminals
Terminals 12
T 4
T 5
T 30
T 35
T 39
T 57
T 58
T 96
T 115
T 127
T 155
T 211
END

EOF
